StudentsNr = 100;
InstructorsNr = 8;
DaysNr = 7;
SlotsPerDay = 20;
AvailabilitySlotsLenght = 20;
RoomNr = 2;
ProgrammNr = 1;
DegreeNr = 3;
RolesNr = 1;
CoursesNr = 9;
InstructorsProgramm = [{1}, {1}, {1}, {1}, {1}, {1}, {1}, {1}];
InstructorRolesPerProgramm = [|{2, 3, 5, 7, 8}|];
InstructorsAvailability = [|0, 1, 1, 1, 1, 0, 0, |1, 1, 1, 1, 1, 1, 1, |1, 1, 1, 1, 1, 1, 1, |1, 1, 1, 1, 1, 1, 1, |1, 1, 1, 1, 1, 1, 1, |1, 0, 0, 1, 1, 1, 0, |1, 1, 1, 1, 1, 1, 1, |1, 0, 1, 1, 0, 0, 1|];
StudentsProgramm = [1, 1, 1, 1, 1, 1, 1, 1, 1, 1, 1, 1, 1, 1, 1, 1, 1, 1, 1, 1, 1, 1, 1, 1, 1, 1, 1, 1, 1, 1, 1, 1, 1, 1, 1, 1, 1, 1, 1, 1, 1, 1, 1, 1, 1, 1, 1, 1, 1, 1, 1, 1, 1, 1, 1, 1, 1, 1, 1, 1, 1, 1, 1, 1, 1, 1, 1, 1, 1, 1, 1, 1, 1, 1, 1, 1, 1, 1, 1, 1, 1, 1, 1, 1, 1, 1, 1, 1, 1, 1, 1, 1, 1, 1, 1, 1, 1, 1, 1, 1];
StudentsDegree = [3, 3, 1, 3, 2, 3, 2, 2, 1, 1, 1, 1, 2, 3, 1, 1, 1, 2, 2, 3, 1, 3, 2, 3, 3, 2, 3, 1, 1, 3, 1, 1, 1, 1, 1, 3, 2, 1, 2, 3, 1, 2, 3, 2, 2, 2, 2, 3, 2, 3, 2, 1, 2, 3, 3, 3, 3, 3, 1, 3, 2, 3, 3, 2, 1, 2, 3, 3, 1, 1, 3, 2, 1, 2, 1, 1, 3, 3, 2, 2, 3, 2, 1, 2, 1, 1, 3, 3, 1, 2, 2, 2, 1, 2, 2, 2, 3, 1, 2, 3];
StudentsSupervisorId = [2, 1, 6, 5, 1, 3, 5, 2, 4, 8, 6, 6, 4, 4, 6, 4, 7, 6, 5, 7, 5, 6, 8, 7, 1, 6, 6, 2, 3, 2, 4, 3, 1, 2, 3, 8, 7, 6, 7, 2, 5, 2, 2, 6, 8, 7, 6, 3, 3, 4, 4, 1, 8, 8, 8, 1, 5, 8, 1, 6, 5, 4, 4, 3, 3, 1, 2, 8, 8, 2, 6, 6, 6, 5, 8, 3, 6, 3, 5, 2, 8, 7, 5, 5, 1, 3, 5, 3, 1, 3, 1, 7, 7, 2, 1, 7, 5, 8, 5, 7];
StudentsCourseIds = [{7}, {9}, {1, 2, 3, 8, 9}, {3}, {1, 3, 4, 6, 7, 8, 9}, {3}, {2, 3, 5, 6, 7, 8, 9}, {1, 2, 3, 4, 5, 6, 8}, {1, 3, 5, 7, 8}, {2, 4, 5, 6, 9}, {1, 2, 5, 7, 8}, {1, 2, 4, 6, 9}, {1, 2, 3, 6, 7, 8, 9}, {4}, {2, 3, 4, 5, 8}, {1, 2, 3, 5, 8}, {1, 3, 7, 8, 9}, {1, 2, 3, 4, 5, 7, 8}, {1, 3, 4, 5, 6, 7, 9}, {5}, {1, 2, 3, 5, 8}, {7}, {1, 3, 4, 6, 7, 8, 9}, {5}, {3}, {2, 3, 5, 6, 7, 8, 9}, {8}, {2, 3, 5, 6, 9}, {1, 4, 7, 8, 9}, {9}, {1, 6, 7, 8, 9}, {1, 2, 3, 7, 8}, {1, 2, 3, 4, 5}, {1, 2, 3, 6, 8}, {2, 4, 5, 6, 8}, {6}, {1, 3, 4, 5, 7, 8, 9}, {1, 4, 5, 6, 8}, {2, 3, 4, 5, 6, 7, 9}, {6}, {1, 2, 3, 6, 8}, {1, 2, 4, 5, 7, 8, 9}, {2}, {1, 2, 3, 4, 6, 8, 9}, {1, 2, 4, 5, 6, 7, 9}, {2, 3, 4, 5, 7, 8, 9}, {1, 2, 4, 5, 6, 7, 8}, {8}, {2, 4, 5, 6, 7, 8, 9}, {3}, {1, 2, 3, 4, 5, 6, 8}, {1, 3, 6, 8, 9}, {1, 2, 3, 6, 7, 8, 9}, {2}, {4}, {8}, {5}, {8}, {1, 2, 4, 6, 7}, {2}, {1, 2, 4, 5, 6, 7, 8}, {1}, {3}, {1, 2, 3, 4, 5, 6, 9}, {2, 4, 5, 6, 8}, {1, 2, 4, 5, 6, 7, 9}, {8}, {6}, {1, 5, 6, 7, 9}, {3, 5, 6, 7, 8}, {9}, {1, 2, 3, 6, 7, 8, 9}, {2, 3, 6, 8, 9}, {1, 2, 4, 5, 6, 8, 9}, {1, 2, 3, 4, 5}, {3, 4, 5, 7, 9}, {1}, {6}, {1, 3, 4, 5, 6, 8, 9}, {1, 3, 4, 5, 6, 7, 9}, {3}, {1, 2, 4, 6, 7, 8, 9}, {1, 2, 3, 6, 9}, {1, 2, 3, 4, 5, 8, 9}, {2, 5, 6, 7, 9}, {4, 5, 6, 7, 9}, {2}, {8}, {3, 4, 5, 7, 8}, {1, 2, 3, 6, 7, 8, 9}, {1, 2, 3, 6, 7, 8, 9}, {2, 3, 4, 5, 6, 7, 9}, {1, 4, 6, 8, 9}, {2, 3, 4, 5, 7, 8, 9}, {1, 4, 5, 6, 7, 8, 9}, {1, 2, 3, 5, 6, 7, 8}, {8}, {1, 4, 6, 7, 8}, {1, 2, 4, 5, 6, 8, 9}, {1}];
StudentsAvailability = [|1, 1, 1, 0, 0, 1, 1, |0, 1, 0, 1, 1, 1, 1, |1, 1, 1, 1, 1, 1, 1, |1, 1, 1, 1, 1, 1, 1, |0, 1, 1, 1, 1, 1, 1, |1, 1, 1, 1, 1, 1, 1, |0, 1, 1, 1, 1, 1, 1, |1, 1, 1, 0, 1, 1, 1, |0, 1, 0, 0, 1, 1, 1, |1, 1, 1, 1, 1, 1, 1, |1, 1, 1, 1, 1, 1, 1, |1, 1, 1, 1, 1, 1, 1, |1, 1, 1, 1, 1, 1, 0, |1, 1, 1, 1, 1, 1, 1, |1, 1, 1, 1, 1, 1, 1, |1, 0, 1, 1, 1, 1, 1, |1, 1, 1, 1, 1, 1, 1, |1, 0, 1, 1, 1, 1, 1, |1, 1, 1, 1, 1, 1, 0, |1, 1, 1, 1, 1, 1, 0, |1, 1, 0, 1, 1, 1, 1, |1, 1, 0, 1, 1, 0, 1, |0, 1, 1, 1, 1, 1, 1, |1, 1, 1, 1, 1, 1, 1, |1, 1, 1, 1, 1, 1, 1, |1, 1, 1, 1, 1, 1, 1, |0, 1, 1, 1, 1, 1, 1, |1, 1, 1, 1, 1, 1, 0, |1, 0, 1, 1, 1, 1, 1, |1, 1, 1, 1, 1, 0, 1, |0, 0, 0, 1, 1, 1, 1, |1, 1, 1, 1, 1, 1, 1, |1, 1, 1, 1, 1, 1, 1, |1, 1, 1, 1, 1, 1, 1, |1, 1, 1, 1, 1, 1, 1, |1, 1, 1, 1, 1, 1, 1, |1, 1, 1, 1, 1, 1, 0, |1, 1, 1, 1, 1, 1, 1, |1, 1, 1, 1, 1, 1, 1, |1, 1, 1, 1, 0, 0, 1, |1, 0, 1, 0, 0, 1, 1, |1, 1, 1, 1, 1, 1, 1, |1, 1, 1, 1, 0, 1, 1, |0, 1, 1, 1, 1, 1, 1, |1, 1, 1, 1, 1, 1, 1, |1, 1, 1, 1, 1, 1, 1, |1, 1, 1, 0, 0, 1, 0, |1, 1, 0, 1, 1, 1, 1, |1, 1, 0, 1, 1, 1, 1, |1, 1, 1, 1, 1, 1, 1, |0, 0, 1, 1, 0, 0, 0, |1, 1, 1, 1, 1, 0, 1, |1, 1, 1, 1, 1, 1, 1, |0, 0, 0, 1, 1, 1, 1, |1, 0, 1, 1, 1, 0, 1, |1, 1, 1, 1, 1, 1, 1, |1, 1, 1, 0, 1, 0, 1, |1, 1, 0, 1, 1, 1, 1, |1, 1, 1, 1, 1, 1, 1, |1, 1, 0, 1, 1, 1, 1, |1, 1, 1, 1, 1, 1, 1, |1, 0, 1, 1, 0, 0, 1, |1, 1, 1, 1, 1, 1, 1, |0, 0, 0, 1, 1, 1, 1, |1, 1, 1, 1, 1, 1, 1, |1, 1, 1, 1, 1, 1, 1, |1, 1, 1, 1, 1, 1, 1, |1, 1, 1, 1, 1, 1, 1, |1, 1, 1, 1, 1, 1, 1, |1, 1, 1, 1, 1, 1, 1, |1, 1, 0, 1, 1, 1, 1, |1, 0, 0, 1, 1, 1, 1, |1, 0, 0, 1, 1, 1, 1, |1, 1, 1, 1, 1, 1, 1, |1, 1, 1, 1, 0, 1, 1, |1, 1, 1, 0, 0, 1, 1, |1, 1, 1, 1, 1, 1, 1, |1, 1, 1, 1, 1, 1, 1, |1, 1, 1, 1, 1, 1, 1, |1, 1, 0, 1, 1, 1, 1, |1, 1, 1, 1, 1, 0, 0, |1, 1, 1, 1, 1, 1, 0, |1, 1, 1, 1, 1, 0, 0, |1, 1, 1, 1, 0, 1, 0, |0, 1, 1, 1, 0, 1, 1, |1, 1, 0, 1, 1, 1, 1, |1, 1, 1, 1, 1, 1, 1, |1, 1, 1, 1, 1, 0, 0, |1, 1, 1, 1, 1, 1, 0, |0, 0, 1, 1, 1, 1, 1, |0, 0, 0, 1, 1, 1, 1, |1, 1, 0, 0, 1, 1, 1, |1, 1, 1, 1, 1, 1, 0, |1, 0, 1, 1, 1, 1, 1, |1, 0, 0, 0, 1, 1, 1, |1, 1, 1, 1, 1, 1, 1, |1, 1, 1, 1, 1, 1, 0, |1, 1, 1, 1, 1, 1, 1, |1, 1, 1, 0, 1, 1, 1, |1, 1, 0, 0, 0, 1, 1|];
TheoryticalMinCard = [0, 1, 0, 0, 0, 0, 0, 0, 0, 0, 0, 0, 0, 1, 0, 0, 0, 0, 0, 0, 0, 1, 0, 0, 0, 0, 0, 0, 0, 0, 0, 0, 0, 0, 0, 0, 0, 0, 0, 0, 0, 0, 0, 0, 0, 0, 0, 0, 0, 1, 0, 0, 0, 0, 0, 1, 0, 0, 0, 1, 0, 1, 1, 0, 0, 0, 0, 0, 0, 0, 0, 0, 0, 0, 0, 0, 1, 0, 0, 0, 0, 0, 0, 0, 0, 0, 0, 0, 0, 0, 0, 0, 0, 0, 0, 0, 0, 0, 0, 0];
CoursesInstructorIds = [{2, 3}, {1, 3, 7}, {1, 3, 6}, {1, 2, 3, 5, 6, 7}, {4, 8}, {2, 5, 6, 7}, {1, 3, 8}, {2, 4, 5, 6}, {2, 3, 6, 7, 8}];
RolesDemands = [2];
RolesContinuity = [];
ExamLen = [3, 3, 4, 3, 3, 3, 3, 3, 4, 4, 4, 4, 3, 3, 4, 4, 4, 3, 3, 3, 4, 3, 3, 3, 3, 3, 3, 4, 4, 3, 4, 4, 4, 4, 4, 3, 3, 4, 3, 3, 4, 3, 3, 3, 3, 3, 3, 3, 3, 3, 3, 4, 3, 3, 3, 3, 3, 3, 4, 3, 3, 3, 3, 3, 4, 3, 3, 3, 4, 4, 3, 3, 4, 3, 4, 4, 3, 3, 3, 3, 3, 3, 4, 3, 4, 4, 3, 3, 4, 3, 3, 3, 4, 3, 3, 3, 3, 4, 3, 3];
LunchTsMinLen = 2;
LunchStarts = [8..15, 25..31, 45..55, 65..73, 90..93, 107..114, 130..134];
SupervisorAvailable = 5;
OptimalLunchLenght = [2, 5];
OptimalStartTs = [1, 2];
OptimalFinishTs = [1, 19];
MinimizeRooms = 0;
RolesSoftContinuity = [|1|4|];
SameDegreeInRoom = 10;
Mergeability = 0;
